clear
timer off
atom_style atomic
units metal
# kim_init         ThreeBodyCluster_SRS_StephensonRadnySmith_1996_Si__MO_604248666067_000 metal
# kim_init         SW_StillingerWeber_1985_Si__MO_405512056662_005 metal
boundary         p p f
# atom_modify sort 0 0.0

# read_data /path/to/data.data
read_data        {}

### set bulk
group bulk id <= {} # relax the top layer + any adsorbates

### interactions
# kim_interactions Si
pair_style kim SW_StillingerWeber_1985_Si__MO_405512056662_005
# pair_coeff * * /path/to/potential Atom1 Atom2 {}
pair_coeff * * {}
mass             1 28.0855

### run
reset_timestep   0
fix fix_nve all nve # fix all atoms
thermo 1 # output thermodynamic variables every N timesteps

thermo_style custom step temp press ke pe xy xz yz
thermo_modify flush yes format float %23.16g

# Output the per-site potential energy to a file
compute        pe_per_atom all pe/atom
# dump write_pe all custom 10 per_atom_pe.txt id x y z c_pe_per_atom

run 0

# write_data /path/to/data.out
write_data {}
print "_end of energy calculation_"
log /dev/stdout
