clear
atom_style atomic
units metal
boundary p p p
atom_modify sort 0 0.0

# read_data /path/to/data.data
read_data {}

### set bulk
group bulk id <= 36

### interactions
pair_style tersoff
# pair_coeff * * /path/to/potential Atom1 Atom2
pair_coeff * * {} {} {}
mass 1 69.723000
mass 2 14.007000

### run
reset_timestep 0
fix 2 bulk setforce 0.0 0.0 0.0
thermo 10 # output thermodynamic variables every N timesteps

thermo_style custom step temp press ke pe xy xz yz
thermo_modify flush yes format float %23.16g
min_style cg
minimize 1e-5 1e-5 500 10000

# write_data /path/to/data.out
write_data {}
print "_end of energy minimization_"
log /dev/stdout
