
clear
atom_style atomic 
units metal
boundary p p p 
atom_modify sort 0 0.0 

# read_data /path/to/data.data
read_data test.data

### set bulk
group bulk id <= 36

### interactions
pair_style tersoff 
# pair_coeff * * /path/to/potential Atom1 Atom2
pair_coeff * * /home/dux/surface_sampling/sgmc_surf/py_lammps/GaN.tersoff Ga N 
mass 1 69.723000 
mass 2 14.007000 

### run
reset_timestep 0
fix 2 bulk setforce 0.0 0.0 0.0
thermo 10 # output thermodynamic variables every N timesteps

thermo_style custom step temp press cpu pxx pyy pzz pxy pxz pyz ke pe etotal vol lx ly lz atoms
thermo_modify flush yes format float %23.16g
min_style cg 
minimize 1e-25 1e-25 5000 10000 

# write_data /path/to/data.out
write_data /home/dux/surface_sampling/sgmc_surf/py_lammps/data.out
print "_end of energy minimization_" 
log /dev/stdout

